
List of user-set options:

                                    Name   Value                used
                           compl_inf_tol = 1                     yes
                         constr_viol_tol = 1                     yes
                            dual_inf_tol = 1000                  yes
                           linear_solver = ma97                  yes
                              ma86_small = 1e-30                  no
                                  ma86_u = 0.0001                 no
                              ma97_order = best                  yes
                              ma97_small = 1e-30                 yes
                            ma97_switch1 = at_start              yes
                            ma97_switch2 = od_hd_reuse           yes
                                  ma97_u = 1e-06                 yes
                               ma97_umax = 0.5                   yes
                                max_iter = 1000                  yes
                    max_refinement_steps = 20                    yes
                    min_refinement_steps = 5                     yes
                                 mu_init = 1e-06                 yes
           mu_superlinear_decrease_power = 1.25                  yes
                   nlp_scaling_min_value = 1e-08                 yes
                        option_file_name = Preset_Case:_265_NCP.opt  yes
                             output_file = ./tmp/Preset_Case:_265_NCP.output  yes
                      print_user_options = yes                   yes
        required_infeasibility_reduction = 1                      no
                                     tol = 1e-08                 yes
                   warm_start_bound_frac = 1e-20                 yes
                   warm_start_bound_push = 1e-20                 yes
                   warm_start_init_point = yes                   yes
              warm_start_mult_bound_push = 1e-20                 yes
                warm_start_mult_init_max = 1e+40                 yes
             warm_start_slack_bound_frac = 1e-20                 yes
             warm_start_slack_bound_push = 1e-20                 yes

******************************************************************************
This program contains Ipopt, a library for large-scale nonlinear optimization.
 Ipopt is released as open source code under the Eclipse Public License (EPL).
         For more information visit http://projects.coin-or.org/Ipopt
******************************************************************************

This is Ipopt version 3.12.10, running with linear solver ma97.

Number of nonzeros in equality constraint Jacobian...:   117167
Number of nonzeros in inequality constraint Jacobian.:      213
Number of nonzeros in Lagrangian Hessian.............:    47513

Total number of variables............................:    29977
                     variables with only lower bounds:    11312
                variables with lower and upper bounds:    15135
                     variables with only upper bounds:        0
Total number of equality constraints.................:    29864
Total number of inequality constraints...............:       25
        inequality constraints with only lower bounds:        4
   inequality constraints with lower and upper bounds:        0
        inequality constraints with only upper bounds:       21

iter    objective    inf_pr   inf_du lg(mu)  ||d||  lg(rg) alpha_du alpha_pr  ls
   0 -1.9705643e-01 1.06e-01 2.00e+00  -6.0 0.00e+00    -  0.00e+00 0.00e+00   0
In iteration 0, 8 Slacks too small, adjusting variable bounds
   1 -1.9705643e-01 1.06e-01 2.16e+02  -6.0 1.09e+10    -  2.15e-14 8.71e-19h  1
   2 -1.9705537e-01 1.06e-01 4.87e+02  -6.0 1.21e+02    -  1.00e-02 2.06e-05f  1
   3 -1.9705101e-01 1.06e-01 4.86e+02  -6.0 1.07e+02    -  9.86e-03 9.03e-05h  1
   4 -1.9647391e-01 1.05e-01 4.67e+02  -6.0 4.46e+02    -  7.55e-02 9.15e-03h  3
   5 -1.9622460e-01 1.04e-01 4.61e+02  -6.0 1.09e+02    -  1.01e-01 5.33e-03h  1
   6 -1.9535621e-01 1.02e-01 4.50e+02  -6.0 1.09e+02    -  8.47e-02 1.76e-02h  4
   7 -1.9422141e-01 9.98e-02 4.42e+02  -6.0 1.01e+02    -  7.58e-07 2.37e-02h  4
   8 -1.9308250e-01 9.74e-02 4.29e+02  -6.0 9.72e+01    -  4.03e-02 2.44e-02h  4
   9 -1.9244696e-01 9.60e-02 4.13e+02  -6.0 9.02e+01    -  1.22e-01 1.41e-02h  5
iter    objective    inf_pr   inf_du lg(mu)  ||d||  lg(rg) alpha_du alpha_pr  ls
  10 -1.9154173e-01 9.42e-02 4.01e+02  -6.0 9.14e+01    -  6.05e-02 1.92e-02h  5
  11 -1.9045864e-01 9.20e-02 3.84e+02  -6.0 8.60e+01    -  9.49e-02 2.33e-02h  5
  12 -1.8976405e-01 9.07e-02 3.71e+02  -6.0 7.89e+01    -  8.87e-02 1.43e-02h  6
  13 -1.8891334e-01 8.90e-02 3.55e+02  -6.0 8.29e+01    -  1.16e-01 1.82e-02h  6
  14 -1.8787513e-01 8.70e-02 3.49e+02  -6.0 8.35e+01    -  7.90e-02 2.23e-02h  6
  15 -1.8685967e-01 8.51e-02 3.77e+02  -6.0 8.15e+01    -  2.28e-01 2.19e-02h  6
  16 -1.5435895e-01 4.67e+00 1.09e+03  -6.0 8.50e+01    -  9.31e-02 7.09e-01w  1
  17 -1.4955796e-01 3.35e+00 7.76e+02  -6.0 9.11e+01    -  2.81e-01 2.73e-01w  1
  18 -1.4955786e-01 3.35e+00 7.67e+02  -6.0 1.17e+02    -  4.59e-01 6.33e-06w  1
  19 -1.8584402e-01 8.32e-02 3.81e+02  -6.0 1.32e+02    -  9.31e-02 2.21e-02h  5
iter    objective    inf_pr   inf_du lg(mu)  ||d||  lg(rg) alpha_du alpha_pr  ls
  20 -1.8479604e-01 8.13e-02 4.08e+02  -6.0 8.79e+01    -  2.68e-01 2.32e-02h  6
  21 -1.8371616e-01 7.94e-02 4.36e+02  -6.0 9.70e+01    -  2.86e-01 2.41e-02h  6
  22 -1.8262739e-01 7.74e-02 4.73e+02  -6.0 1.09e+02    -  3.65e-01 2.42e-02h  6
  23 -1.8159626e-01 7.58e-02 4.95e+02  -6.0 1.17e+02    -  1.93e-01 2.08e-02h  4
  24 -1.8106792e-01 7.49e-02 4.94e+02  -6.0 6.72e+01  -4.0 7.51e-02 1.18e-02h  6
  25 -1.8045219e-01 7.37e-02 4.84e+02  -6.0 4.72e+01  -3.6 1.54e-01 1.66e-02h  5
  26 -1.7947132e-01 7.21e-02 4.69e+02  -6.0 3.10e+01  -3.1 6.97e-02 2.15e-02h  4
  27 -1.7860547e-01 7.04e-02 4.56e+02  -6.0 4.83e+01  -3.6 8.95e-02 2.32e-02h  5
  28 -1.7806997e-01 6.95e-02 4.23e+02  -6.0 3.34e+01  -3.2 2.80e-01 1.27e-02h  5
  29 -1.6470833e-01 1.01e+00 3.73e+02  -6.0 4.87e+01  -3.7 8.37e-02 3.50e-01w  1
iter    objective    inf_pr   inf_du lg(mu)  ||d||  lg(rg) alpha_du alpha_pr  ls
  30 -1.6331119e-01 8.76e-01 6.41e+02  -6.0 1.83e+02    -  4.23e-06 1.25e-01w  1
  31 -1.6265652e-01 8.58e-01 6.51e+02  -6.0 6.93e+01  -3.3 1.44e-01 2.14e-02w  1
  32 -1.7723487e-01 6.80e-02 4.12e+02  -6.0 1.75e+02    -  8.37e-02 2.19e-02h  4
  33 -1.7638453e-01 6.67e-02 3.67e+02  -6.0 2.87e+01  -2.8 3.08e-01 1.99e-02h  4
  34 -1.7570941e-01 6.65e-02 3.54e+02  -6.0 3.57e+01  -3.3 1.11e-01 1.74e-02h  5
  35 -1.7508704e-01 6.82e-02 3.03e+02  -6.0 2.95e+01  -2.9 4.27e-01 1.50e-02h  5
  36 -1.7452511e-01 6.91e-02 2.90e+02  -6.0 3.76e+01  -3.4 1.79e-01 1.50e-02h  5
  37 -1.7387701e-01 7.09e-02 3.88e+02  -6.0 3.06e+01  -2.9 5.62e-01 1.59e-02h  5
  38 -1.7343343e-01 7.10e-02 3.45e+02  -6.0 4.10e+01  -3.4 2.42e-01 1.15e-02h  6
  39 -1.7275902e-01 7.28e-02 6.54e+02  -6.0 3.21e+01  -3.0 6.84e-01 1.67e-02h  5
iter    objective    inf_pr   inf_du lg(mu)  ||d||  lg(rg) alpha_du alpha_pr  ls
  40 -1.7220288e-01 7.30e-02 5.15e+02  -6.0 4.52e+01  -3.5 3.09e-01 1.40e-02h  6
  41 -1.7145766e-01 7.50e-02 8.55e+02  -6.0 3.36e+01  -3.0 6.05e-01 1.86e-02h  5
  42 -1.5598380e-01 1.49e+00 5.24e+02  -6.0 4.96e+01  -3.5 4.74e-01 3.98e-01w  1
  43 -1.4995751e-01 1.14e+00 1.33e+03  -6.0 4.35e+01  -3.1 7.86e-01 2.38e-01w  1
  44 -1.4678147e-01 7.17e-01 1.12e+03  -6.0 7.80e+01  -3.6 7.77e-02 1.62e-01w  1
  45 -1.7097410e-01 7.48e-02 5.50e+02  -6.0 9.31e+01  -3.1 4.74e-01 1.24e-02h  5
  46 -1.7049825e-01 7.45e-02 3.34e+02  -6.0 5.49e+01  -3.6 5.15e-01 1.21e-02h  6
  47 -1.6954056e-01 7.88e-02 5.72e+02  -6.0 3.83e+01  -3.2 4.25e-01 2.95e-02h  3
  48 -1.6916377e-01 7.89e-02 2.62e+03  -6.0 2.83e+01  -2.8 8.59e-01 9.68e-03h  5
  49 -1.6865170e-01 7.90e-02 2.29e+03  -6.0 4.17e+01  -3.2 4.01e-01 1.41e-02h  5
iter    objective    inf_pr   inf_du lg(mu)  ||d||  lg(rg) alpha_du alpha_pr  ls
  50 -1.6812010e-01 7.82e-02 4.72e+02  -6.0 6.79e+01  -3.7 5.78e-01 1.54e-02h  6
  51 -1.6729105e-01 7.93e-02 7.74e+02  -6.0 4.42e+01  -3.3 6.79e-01 2.62e-02h  3
  52 -1.6688465e-01 7.93e-02 3.03e+03  -6.0 3.13e+01  -2.9 8.56e-01 1.06e-02h  5
  53 -1.6627362e-01 7.92e-02 2.40e+03  -6.0 5.10e+01  -3.3 4.64e-01 1.65e-02h  6
  54 -1.6581954e-01 7.92e-02 5.67e+03  -6.0 3.45e+01  -2.9 8.19e-01 1.21e-02h  5
  55 -1.6192760e-01 1.18e-01 3.59e+03  -6.0 5.67e+01  -3.4 5.22e-01 1.16e-01w  1
  56 -1.5649123e-01 2.11e-01 7.66e+03  -6.0 4.10e+01  -3.0 1.00e+00 1.65e-01w  1
  57 -1.4782118e-01 9.47e-01 6.52e+03  -6.0 7.59e+01  -3.4 1.76e-01 3.41e-01w  1
  58 -1.6533304e-01 7.88e-02 3.79e+03  -6.0 8.04e+01  -3.0 5.22e-01 1.44e-02h  3
  59 -1.6437519e-01 7.87e-02 1.62e+03  -6.0 6.31e+01  -3.5 1.00e+00 2.95e-02h  5
iter    objective    inf_pr   inf_du lg(mu)  ||d||  lg(rg) alpha_du alpha_pr  ls
  60 -1.6386846e-01 7.84e-02 3.62e+03  -6.0 4.10e+01  -3.1 4.14e-01 1.52e-02h  4
  61 -1.6286943e-01 7.76e-02 3.12e+03  -6.0 6.78e+01  -3.5 3.31e-01 3.21e-02h  5
  62 -1.6198651e-01 7.79e-02 9.00e+03  -6.0 4.50e+01  -3.1 1.00e+00 2.67e-02h  4
  63 -1.6111449e-01 7.64e-02 7.87e+03  -6.0 7.46e+01  -3.6 1.38e-01 2.95e-02h  5
  64 -1.6010106e-01 7.66e-02 1.32e+04  -6.0 5.01e+01  -3.2 1.00e+00 3.19e-02h  5
  65 -1.5952912e-01 7.65e-02 3.62e+04  -6.0 3.71e+01  -2.7 6.04e-01 1.67e-02h  5
  66 -1.5891730e-01 7.57e-02 2.27e+04  -6.0 5.74e+01  -3.2 1.00e+00 2.06e-02h  5
  67 -1.5833766e-01 7.54e-02 4.61e+04  -6.0 4.08e+01  -2.8 3.93e-01 1.78e-02h  5
  68 -1.4794935e-01 3.39e-01 2.21e+04  -6.0 6.29e+01  -3.3 8.76e-01 3.69e-01w  1
  69 -1.4794152e-01 3.39e-01 5.94e+04  -6.0 7.88e+01  -2.8 4.27e-01 2.69e-04w  1
iter    objective    inf_pr   inf_du lg(mu)  ||d||  lg(rg) alpha_du alpha_pr  ls
  70 -1.4620378e-01 2.99e+00 5.45e+04  -6.0 1.04e+02  -3.3 6.71e-02 8.20e-02w  1
  71 -1.5768839e-01 7.43e-02 3.31e+04  -6.0 1.74e+02  -3.8 8.76e-01 2.31e-02h  4
  72 -1.5652875e-01 7.24e-02 2.64e+04  -6.0 6.88e+01  -3.4 1.00e+00 4.31e-02h  4
  73 -1.5547375e-01 7.17e-02 8.65e+04  -6.0 4.76e+01  -2.9 8.26e-01 3.69e-02h  4
  74 -1.5503882e-01 7.05e-02 3.47e+04  -6.0 7.46e+01  -3.4 8.05e-01 1.78e-02h  5
  75 -1.5406050e-01 6.92e-02 7.75e+04  -6.0 5.17e+01  -3.0 5.44e-01 3.66e-02h  4
  76 -1.5406571e-01 6.92e-02 7.93e+04  -6.0 1.06e+03  -3.5 4.61e-03 2.89e-04h  6
  77 -1.5326201e-01 6.77e-02 1.43e+05  -6.0 5.70e+01  -3.0 1.00e+00 3.13e-02h  4
  78 -1.5235535e-01 6.71e-02 2.93e+05  -6.0 4.51e+01  -2.6 4.30e-01 3.19e-02h  4
  79 -1.5193793e-01 6.63e-02 2.71e+05  -6.0 7.75e+01  -3.1 2.85e-01 1.53e-02h  5
iter    objective    inf_pr   inf_du lg(mu)  ||d||  lg(rg) alpha_du alpha_pr  ls
  80 -1.5144505e-01 6.56e-02 6.95e+05  -6.0 5.70e+01  -2.7 1.00e+00 1.68e-02h  5
  81 -1.4717052e-01 2.85e+00 6.07e+05  -6.0 1.02e+02  -3.1 1.07e-01 1.44e-01w  1
  82 -1.4715912e-01 2.85e+00 2.37e+05  -6.0 1.84e+02  -3.6 5.75e-01 4.73e-04w  1
  83 -1.3906673e-01 5.49e+00 9.62e+04  -6.0 2.29e+02  -4.1 7.57e-01 5.37e-01w  1
  84 -1.5131147e-01 6.53e-02 6.56e+05  -6.0 1.59e+02  -2.8 1.07e-01 4.50e-03h  5
  85 -1.5126078e-01 6.52e-02 5.76e+05  -6.0 1.17e+02  -3.3 2.34e-01 2.14e-03h  6
  86 -1.5113453e-01 6.49e-02 8.10e+05  -6.0 8.07e+01  -2.8 1.00e+00 3.93e-03h  7
  87 -1.5113419e-01 6.49e-02 7.98e+05  -6.0 3.08e+02  -3.3 2.69e-02 5.10e-05h 10
  88 -1.5101346e-01 6.47e-02 9.47e+05  -6.0 9.50e+01  -2.9 1.00e+00 3.62e-03h  7
  89 -1.5078796e-01 6.45e-02 1.54e+06  -6.0 7.06e+01  -2.5 4.08e-01 6.33e-03h  7
iter    objective    inf_pr   inf_du lg(mu)  ||d||  lg(rg) alpha_du alpha_pr  ls
  90 -1.5070493e-01 6.43e-02 1.06e+06  -6.0 1.12e+02  -2.9 1.00e+00 2.49e-03h  7
  91 -1.5050616e-01 6.41e-02 1.56e+06  -6.0 7.87e+01  -2.5 3.63e-01 5.57e-03h  7
  92 -1.5043384e-01 6.39e-02 1.04e+06  -6.0 1.20e+02  -3.0 1.00e+00 2.22e-03h  7
  93 -1.5030078e-01 6.37e-02 8.34e+05  -6.0 1.81e+02  -3.5 2.99e-01 4.26e-03h  7
  94 -1.2473370e-01 7.92e+00 5.92e+04  -6.0 2.43e+02  -3.9 9.22e-01 9.65e-01w  1
  95 -1.2137450e-01 6.87e-02 5.62e+04  -6.0 1.51e+01  -4.4 7.59e-01 1.00e+00h  1
  96 -1.2397108e-01 1.08e-01 2.69e+03  -6.0 5.68e+00  -4.9 9.73e-01 1.00e+00h  1
  97 -1.3165730e-01 5.04e-02 3.97e+03  -6.0 1.46e+01  -5.4 4.62e-01 1.00e+00H  1
  98 -1.3560400e-01 1.31e-01 2.73e+03  -6.0 1.11e+01  -4.9 4.62e-01 1.00e+00H  1
  99 -1.3628287e-01 1.37e-01 2.03e+03  -6.0 1.77e+01  -5.4 3.07e-01 8.96e-02h  3
iter    objective    inf_pr   inf_du lg(mu)  ||d||  lg(rg) alpha_du alpha_pr  ls
 100 -1.3658268e-01 1.43e-01 2.57e+03  -6.0 1.75e+02  -5.9 8.22e-02 5.98e-03h  4
 101 -1.3684096e-01 1.42e-01 1.59e+03  -6.0 2.23e+01  -5.5 4.91e-01 2.80e-02h  4
 102 -1.3911636e-01 4.81e-01 1.68e+03  -6.0 1.17e+02  -5.9 9.38e-02 5.97e-02h  1
 103 -1.4643876e-01 3.56e+00 1.03e+03  -6.0 1.65e+02  -6.4 9.46e-02 1.40e-01h  1
 104 -1.4727348e-01 3.33e+00 9.80e+02  -6.0 5.07e+01  -6.0 6.98e-02 6.90e-02h  1
 105 -1.4848969e-01 3.16e+00 4.81e+04  -6.0 1.47e+02  -6.5 9.48e-01 6.06e-02h  1
 106 -1.5040153e-01 3.06e+00 5.50e+04  -6.0 5.19e+02  -6.9 3.85e-01 3.40e-02h  1
 107 -1.5933528e-01 3.02e+00 5.45e+04  -6.0 1.08e+04  -7.4 8.57e-03 8.16e-03h  1
 108 -1.6795776e-01 5.16e+00 1.97e+04  -6.0 2.20e+02  -7.0 1.73e-01 4.54e-01h  1
 109 -1.6794589e-01 5.09e+00 1.52e+05  -6.0 2.85e+01  -3.0 4.83e-03 1.34e-02h  1
iter    objective    inf_pr   inf_du lg(mu)  ||d||  lg(rg) alpha_du alpha_pr  ls
 110 -1.6792962e-01 5.04e+00 1.50e+05  -6.0 5.97e+01  -2.5 1.35e-03 9.40e-03h  1
 111 -1.6791038e-01 4.96e+00 1.47e+05  -6.0 1.63e+01  -2.1 1.11e-02 1.71e-02h  1
 112 -1.6788493e-01 4.82e+00 1.43e+05  -6.0 5.34e+00  -1.7 1.69e-02 2.76e-02h  1
 113 -1.6788063e-01 4.81e+00 1.43e+05  -6.0 5.06e+01  -2.2 1.34e-02 2.32e-03h  1
 114 -1.6782755e-01 4.54e+00 1.35e+05  -6.0 7.05e+00  -1.7 1.28e-01 5.61e-02h  1
 115 -1.6778135e-01 4.27e+00 1.27e+05  -6.0 3.42e+00  -1.3 5.68e-02 5.87e-02h  1
 116 -1.6768701e-01 3.81e+00 1.13e+05  -6.0 1.36e+01  -1.8 8.89e-02 1.07e-01h  1
 117 -1.6756383e-01 2.93e+00 8.71e+04  -6.0 3.82e+00  -1.4 5.94e-01 2.32e-01h  1
 118 -1.6745289e-01 2.10e+00 6.22e+04  -6.0 5.75e+00  -1.8 2.32e-01 2.87e-01h  1
 119 -1.6740877e-01 1.85e+00 5.48e+04  -6.0 4.58e+00  -2.3 1.00e+00 1.19e-01h  1
iter    objective    inf_pr   inf_du lg(mu)  ||d||  lg(rg) alpha_du alpha_pr  ls
 120 -1.6723305e-01 1.81e+00 5.29e+04  -6.0 9.55e+01  -2.8 9.01e-02 3.33e-02h  1
 121 -1.6713240e-01 8.39e-01 2.36e+04  -6.0 2.87e+00  -2.4 6.87e-01 5.55e-01h  1
 122 -1.6684480e-01 5.84e-01 1.63e+04  -6.0 1.25e+00  -2.8 1.00e+00 3.08e-01h  1
 123 -1.6665090e-01 7.91e-02 3.69e+02  -6.0 3.44e+00  -3.3 7.10e-01 1.00e+00h  1
 124 -1.6688292e-01 3.07e-04 6.19e-01  -6.0 6.73e-01  -3.8 1.00e+00 1.00e+00h  1
 125 -1.6755495e-01 2.73e-03 1.02e+00  -6.0 2.04e+00  -4.3 1.00e+00 8.53e-01h  1
 126 -1.6822980e-01 4.54e-03 7.16e-01  -6.0 4.05e+00  -4.8 8.06e-01 8.54e-01f  1
 127 -1.6872133e-01 5.38e-03 1.69e+01  -6.0 1.04e+01  -5.2 6.08e-01 1.72e-01f  1
 128 -1.7037908e-01 3.31e-02 2.00e+01  -6.0 3.33e+01  -5.7 3.08e-01 2.39e-01f  1
 129 -1.7089919e-01 7.44e-02 1.30e+02  -6.0 4.23e+01  -6.2 1.00e+00 1.24e-01h  1
iter    objective    inf_pr   inf_du lg(mu)  ||d||  lg(rg) alpha_du alpha_pr  ls
 130 -1.7187238e-01 1.71e-01 1.44e+02  -6.0 1.05e+02  -6.7 1.00e+00 1.01e-01h  1
 131 -1.7420039e-01 4.15e-01 1.51e+02  -6.0 1.91e+02  -7.1 1.00e+00 1.73e-01h  1
 132 -1.7645224e-01 3.67e-01 1.61e+02  -6.0 3.61e+02  -7.6 5.50e-01 1.09e-01h  1
 133 -1.9275718e-01 1.60e+01 1.09e+02  -6.0 1.01e+03  -8.1 9.09e-01 4.65e-01h  1
 134 -1.9374761e-01 1.68e+01 1.12e+02  -6.0 1.52e+04  -8.6 3.00e-02 4.86e-03h  1
 135 -1.9879892e-01 7.44e+00 2.75e+02  -6.0 5.32e+02  -8.1 1.24e-01 5.56e-01h  1
 136 -2.0199826e-01 5.74e+00 2.14e+02  -6.0 8.35e+02  -8.6 3.10e-01 2.26e-01h  1
 137 -2.0436337e-01 3.69e+00 1.45e+02  -6.0 4.04e+02  -8.2 7.98e-01 3.54e-01h  1
 138 -2.0721778e-01 2.56e+00 1.09e+02  -6.0 1.19e+03  -8.7 2.10e-01 2.63e-01h  1
 139 -2.0870678e-01 5.02e-01 2.33e+02  -6.0 1.32e+02  -7.3 6.55e-03 8.94e-01h  1
iter    objective    inf_pr   inf_du lg(mu)  ||d||  lg(rg) alpha_du alpha_pr  ls
 140 -2.1215052e-01 2.28e+00 3.51e+02  -6.0 2.75e+02  -7.8 3.82e-01 1.00e+00h  1
 141 -2.1346737e-01 1.57e+00 1.60e+02  -6.0 1.32e+02  -7.4 5.12e-01 4.90e-01h  1
 142 -2.1812347e-01 5.90e+00 2.19e+02  -6.0 7.56e+02  -7.9 4.21e-01 3.85e-01h  1
 143 -2.1814523e-01 5.82e+00 1.28e+02  -6.0 2.60e+01  -4.7 1.11e-01 1.35e-02h  1
 144 -2.1832437e-01 5.05e+00 3.00e+02  -6.0 7.48e+00  -5.2 2.78e-02 1.41e-01h  1
 145 -2.1883191e-01 3.23e+00 1.88e+02  -6.0 7.77e+00  -5.7 6.32e-01 4.23e-01h  1
 146 -2.1910241e-01 2.25e+00 1.13e+02  -6.0 6.33e+00  -6.2 4.64e-01 3.36e-01h  1
 147 -2.1981899e-01 8.59e-01 3.19e+01  -6.0 2.00e+01  -6.6 1.00e+00 1.00e+00h  1
 148 -2.2082862e-01 1.81e+00 2.11e+01  -6.0 5.79e+01  -7.1 1.00e+00 9.99e-01h  1
 149 -2.2143260e-01 7.59e-01 4.33e+00  -6.0 6.93e+01  -7.6 5.84e-01 1.00e+00h  1
iter    objective    inf_pr   inf_du lg(mu)  ||d||  lg(rg) alpha_du alpha_pr  ls
 150 -2.2301203e-01 7.91e-01 9.79e+00  -6.0 2.44e+02  -8.1 1.00e+00 5.19e-01h  1
 151 -2.2438858e-01 1.10e+00 6.29e+00  -6.0 3.83e+02  -8.6 4.13e-01 2.66e-01h  1
 152 -2.2668183e-01 1.56e+00 1.87e+01  -6.0 2.56e+03  -9.0 3.38e-01 1.34e-01h  1
 153 -2.3038039e-01 4.67e+00 2.14e+01  -6.0 8.28e+02  -8.6 4.66e-01 5.71e-01h  1
 154 -2.3174894e-01 4.61e+00 2.10e+01  -6.0 2.65e+03  -9.1 7.86e-03 2.03e-01h  1
 155 -2.3240819e-01 4.40e+00 1.79e+01  -6.0 1.26e+03  -8.7 3.54e-01 1.64e-01h  1
 156 -2.3280667e-01 4.12e+00 1.66e+01  -6.0 7.25e+02  -8.2 1.01e-01 1.09e-01h  1
 157 -2.3328030e-01 4.88e+00 1.97e+03  -6.0 3.54e+03  -8.7 1.62e-01 3.17e-02h  1
 158 -2.3399318e-01 7.56e+00 1.68e+03  -6.0 2.78e+04  -9.2 3.54e-03 6.32e-03h  1
 159 -2.3420607e-01 7.37e+00 1.63e+03  -6.0 1.03e+04  -9.7 2.17e-02 2.62e-02h  1
iter    objective    inf_pr   inf_du lg(mu)  ||d||  lg(rg) alpha_du alpha_pr  ls
 160 -2.3428573e-01 7.20e+00 1.58e+03  -6.0 1.23e+03  -9.2 5.32e-02 2.23e-02f  1
 161 -2.3467273e-01 5.89e+00 1.35e+03  -6.0 5.92e+02  -8.8 7.80e-02 1.84e-01h  1
 162 -2.3578174e-01 3.52e+00 6.91e+02  -6.0 9.02e+02  -9.3 2.72e-01 3.96e-01h  1
 163 -2.3664731e-01 3.36e+00 1.23e+02  -6.0 1.02e+03  -8.9 2.49e-01 2.94e-01h  1
 164 -2.3679361e-01 3.12e+00 1.64e+03  -6.0 6.45e+02  -7.5 2.96e-01 7.03e-02h  1
 165 -2.3844267e-01 8.54e+00 5.59e+03  -6.0 7.32e+02  -8.0 4.57e-01 9.34e-01h  1
 166 -2.3870180e-01 8.51e+00 1.42e+04  -6.0 1.82e+03  -8.5 3.07e-02 1.44e-01h  1
 167 -2.3912311e-01 7.91e+00 2.01e+04  -6.0 1.29e+03  -9.0 2.88e-01 7.14e-02h  1
Error in an AMPL evaluation. Run with "halt_on_ampl_error yes" to see details.
Warning: Cutting back alpha due to evaluation error
 168 -2.3998416e-01 7.28e+00 1.69e+04  -6.0 2.39e+03  -9.4 7.54e-02 8.49e-02h  2
Error in an AMPL evaluation. Run with "halt_on_ampl_error yes" to see details.
Warning: Cutting back alpha due to evaluation error
 169 -2.4052696e-01 6.53e+00 2.74e+04  -6.0 8.38e+02  -9.0 1.80e-01 1.05e-01h  2
iter    objective    inf_pr   inf_du lg(mu)  ||d||  lg(rg) alpha_du alpha_pr  ls
 170 -2.4200239e-01 5.53e+00 4.83e+04  -6.0 1.33e+03  -9.5 2.88e-01 1.78e-01h  1
 171 -2.4310573e-01 4.39e+00 7.53e+04  -6.0 5.99e+02  -9.1 3.43e-01 2.21e-01h  1
 172 -2.4334622e-01 4.28e+00 1.20e+05  -6.0 1.62e+03  -9.5 1.75e-01 2.66e-02h  1
 173 -2.4376245e-01 4.23e+00 1.21e+07  -6.0 7.70e+03  -9.1 3.88e-04 1.44e-02h  1
 174 -2.4520673e-01 3.33e+00 7.77e+06  -6.0 1.15e+03  -9.6 1.27e-02 3.55e-01h  1
 175 -2.4647250e-01 2.07e+00 2.14e+06  -6.0 4.48e+02  -9.2 7.89e-02 7.22e-01h  1
 176 -2.4736942e-01 1.25e+01 1.87e+06  -6.0 6.13e+03  -9.6 6.78e-02 1.26e-01h  1
 177 -2.4905485e-01 1.32e+01 7.15e+05  -6.0 1.03e+03  -9.2 8.35e-01 6.18e-01h  1
 178 -2.5004907e-01 4.49e+00 1.29e+05  -6.0 3.70e+02  -8.8 9.91e-01 8.20e-01h  1
 179 -2.5222991e-01 1.80e+01 4.78e+04  -6.0 1.38e+03  -9.3 1.81e-01 6.28e-01h  1
iter    objective    inf_pr   inf_du lg(mu)  ||d||  lg(rg) alpha_du alpha_pr  ls
 180 -2.5290466e-01 1.80e+01 4.38e+04  -6.0 3.04e+03  -9.7 1.98e-02 8.22e-02h  1
 181 -2.5382621e-01 2.25e+01 4.27e+04  -6.0 1.73e+04 -10.2 4.16e-02 2.68e-02h  1
 182 -2.5397027e-01 2.07e+01 3.91e+04  -6.0 1.90e+03  -9.8 2.27e-01 8.39e-02h  1
 183 -2.5457241e-01 6.30e+00 1.19e+04  -6.0 3.90e+02  -9.4 6.63e-03 6.95e-01h  1
 184 -2.5475844e-01 5.93e+00 1.11e+04  -6.0 1.00e+03  -8.9 6.32e-02 6.88e-02h  1
 185 -2.5511123e-01 3.50e+00 6.56e+03  -6.0 3.55e+02  -9.4 5.07e-01 4.09e-01h  1
 186 -2.5513978e-01 3.41e+00 6.39e+03  -6.0 3.28e+03  -9.9 4.88e-01 2.72e-02h  1
 187 -2.5551199e-01 2.58e+00 4.52e+03  -6.0 1.33e+03 -10.4 4.45e-01 2.92e-01h  1
 188 -2.5558112e-01 2.33e+00 3.86e+03  -6.0 7.02e+02  -9.9 4.34e-01 1.47e-01h  1
 189 -2.5571591e-01 1.73e+00 2.62e+03  -6.0 3.07e+02  -9.5 2.28e-01 3.22e-01h  1
iter    objective    inf_pr   inf_du lg(mu)  ||d||  lg(rg) alpha_du alpha_pr  ls
 190 -2.5590229e-01 1.10e+00 1.07e+03  -6.0 2.32e+02  -9.1 8.56e-01 5.91e-01h  1
 191 -2.5628030e-01 1.43e+00 7.39e+00  -6.0 3.08e+02  -9.6 1.00e+00 1.00e+00h  1
 192 -2.5634622e-01 6.29e-01 1.33e+03  -6.0 7.65e+01  -7.3 8.49e-02 6.06e-01h  1
 193 -2.5641050e-01 2.48e-02 3.26e-01  -6.0 2.88e+01  -7.8 1.00e+00 1.00e+00h  1
 194 -2.5661864e-01 5.06e-01 2.26e+00  -6.0 1.33e+02  -8.3 1.00e+00 1.00e+00h  1
 195 -2.5689079e-01 1.03e+00 4.36e+00  -6.0 5.16e+02  -8.8 3.23e-01 2.94e-01h  1
 196 -2.5701830e-01 1.74e-01 1.01e+02  -6.0 2.37e+02  -9.3 9.35e-01 9.04e-01h  1
 197 -2.5732680e-01 9.46e-01 2.27e+01  -6.0 7.05e+02  -9.7 2.39e-01 2.42e-01h  1
 198 -2.5733303e-01 9.42e-01 2.42e+01  -6.0 6.13e+03  -9.3 5.30e-03 4.17e-03h  1
 199 -2.5752888e-01 9.81e-01 1.48e+03  -6.0 3.28e+02  -9.8 1.55e-01 8.20e-01h  1
iter    objective    inf_pr   inf_du lg(mu)  ||d||  lg(rg) alpha_du alpha_pr  ls
 200 -2.5752058e-01 8.22e-01 7.57e+04  -6.0 1.94e+01  -5.7 1.16e-02 1.62e-01h  1
 201 -2.5746425e-01 6.21e-03 8.87e+00  -6.0 1.38e+01  -6.2 1.00e+00 1.00e+00h  1
 202 -2.5746673e-01 7.88e-04 1.36e-01  -6.0 2.56e+00  -6.7 1.00e+00 1.00e+00h  1
 203 -2.5744462e-01 6.62e-03 1.13e+00  -6.0 5.60e+00  -7.2 1.00e+00 1.00e+00h  1
 204 -2.5743155e-01 2.98e-03 6.21e-01  -6.0 3.07e+00  -6.7 1.00e+00 1.00e+00h  1
 205 -2.5719640e-01 8.98e-01 3.39e+02  -6.0 4.79e+01  -7.2 1.57e-01 5.38e-01H  1
 206 -2.5721471e-01 5.12e-01 2.20e+02  -6.0 3.35e+01  -7.7 2.41e-01 4.00e-01h  1
 207 -2.5724486e-01 1.34e+00 1.72e+02  -6.0 1.21e+02  -8.2 2.79e-01 4.53e-01h  1
 208 -2.5727531e-01 1.10e+00 1.18e+02  -6.0 1.16e+02  -8.7 7.30e-03 2.23e-01f  1
 209 -2.5728278e-01 1.14e+00 1.23e+02  -6.0 7.32e+02  -7.3 1.26e-02 4.37e-03f  2
iter    objective    inf_pr   inf_du lg(mu)  ||d||  lg(rg) alpha_du alpha_pr  ls
 210 -2.5740068e-01 1.10e-01 2.36e+02  -6.0 2.93e+00  -6.0 4.38e-01 1.00e+00h  1
 211 -2.5762910e-01 1.94e+00 2.04e+02  -6.0 2.04e+01  -6.5 4.79e-01 8.99e-01h  1
 212 -2.5764789e-01 1.92e+00 1.24e+02  -6.0 3.61e+01  -7.0 2.52e-01 1.07e-02h  2
 213 -2.5823355e-01 2.87e+00 2.80e+02  -6.0 1.87e+01  -7.4 1.00e+00 7.12e-01h  1
 214 -2.5827371e-01 2.77e+00 2.71e+02  -6.0 7.86e+01  -7.9 6.53e-04 3.66e-02h  1
 215 -2.5859528e-01 2.17e+00 4.10e+02  -6.0 6.16e+01  -8.4 6.58e-02 5.11e-01f  1
 216 -2.5873078e-01 1.81e+00 1.12e+02  -6.0 2.08e+02  -8.9 2.40e-01 7.63e-01h  1
 217 -2.5876909e-01 1.05e+00 7.91e+01  -6.0 3.59e+02  -9.3 2.28e-01 2.93e-01h  1
 218 -2.5884186e-01 3.66e-01 1.53e+01  -6.0 1.58e+02  -8.9 1.00e+00 1.00e+00h  1
 219 -2.5901523e-01 6.79e+00 9.83e+01  -6.0 6.76e+02  -9.4 5.76e-01 9.24e-01h  1
iter    objective    inf_pr   inf_du lg(mu)  ||d||  lg(rg) alpha_du alpha_pr  ls
 220 -2.5930575e-01 6.46e+00 8.89e+01  -6.0 6.57e+02  -9.9 1.20e-01 1.00e+00h  1
 221 -2.5937486e-01 6.12e+00 7.89e+01  -6.0 2.91e+03 -10.3 6.99e-02 1.45e-01h  1
 222 -2.5942852e-01 5.23e+00 3.32e+01  -6.0 6.58e+02  -9.9 4.15e-01 7.16e-01h  1
 223 -2.5943648e-01 7.78e-01 8.06e+00  -6.0 2.17e+02  -9.5 1.00e+00 1.00e+00h  1
 224 -2.5950434e-01 3.76e+00 8.97e+00  -6.0 4.99e+02 -10.0 6.95e-01 1.00e+00h  1
 225 -2.5952134e-01 5.05e+01 9.00e+01  -6.0 1.82e+03 -10.4 4.08e-01 1.00e+00h  1
 226 -2.5951955e-01 5.02e+01 1.10e+02  -6.0 1.44e+04 -10.9 7.46e-02 5.29e-03H  1
 227 -2.5942202e-01 4.45e+01 9.98e+01  -6.0 2.10e+04 -11.4 9.69e-02 1.13e-01h  1
 228 -2.5946771e-01 2.25e+01 4.72e+01  -6.0 3.51e+02 -10.1 8.10e-01 5.00e-01h  1
 229 -2.5957414e-01 5.12e+01 9.81e+01  -6.0 9.28e+03    -  1.77e-01 2.03e-01h  1
iter    objective    inf_pr   inf_du lg(mu)  ||d||  lg(rg) alpha_du alpha_pr  ls
 230 -2.5961501e-01 4.64e+01 1.29e+02  -6.0 1.87e+03 -10.5 1.62e-01 9.41e-02h  1
 231 -2.5974034e-01 3.89e+01 1.13e+02  -6.0 2.34e+03  -9.2 2.07e-01 1.62e-01H  1
 232 -2.5951171e-01 2.95e+01 3.70e+02  -6.0 3.07e+02  -8.8 9.43e-02 2.41e-01h  1
 233 -2.5966253e-01 1.34e+01 1.58e+02  -6.0 3.89e+02  -9.3 1.22e-01 5.45e-01h  1
 234 -2.5993919e-01 1.29e+01 3.12e+02  -6.0 8.54e+03  -9.7 3.84e-02 3.89e-02h  1
 235 -2.6035496e-01 8.04e+00 3.27e+01  -6.0 4.95e+02 -10.2 2.72e-04 5.49e-01h  1
 236 -2.6036169e-01 1.03e+01 3.33e+01  -6.0 1.42e+04    -  5.52e-02 4.20e-02h  1
 237 -2.6037890e-01 6.82e+00 3.33e+01  -6.0 1.09e+03    -  1.07e-01 3.71e-01h  1
 238 -2.6031969e-01 8.90e-01 2.60e+01  -6.0 1.88e+02  -9.8 6.55e-01 1.00e+00h  1
 239 -2.6035228e-01 2.30e+00 1.78e+01  -6.0 3.90e+02 -10.3 5.10e-01 1.00e+00h  1
iter    objective    inf_pr   inf_du lg(mu)  ||d||  lg(rg) alpha_du alpha_pr  ls
 240 -2.6037695e-01 3.33e+00 9.21e+00  -6.0 1.11e+03 -10.8 4.77e-01 4.13e-01h  1
 241 -2.6035868e-01 9.10e-01 2.26e+01  -6.0 2.78e+02  -9.4 4.73e-01 1.00e+00h  1
 242 -2.6039895e-01 8.78e+00 5.27e+01  -6.0 7.03e+02  -9.9 3.96e-01 1.00e+00h  1
 243 -2.6039988e-01 6.80e+00 2.96e+01  -6.0 9.19e+02    -  6.92e-01 2.26e-01h  2
 244 -2.6040605e-01 7.40e-01 2.02e+00  -6.0 2.42e+02    -  1.00e+00 1.00e+00h  1
 245 -2.6040799e-01 7.66e-01 4.28e+01  -6.0 6.42e+02 -10.4 1.00e+00 1.31e-01h  3
 246 -2.6040985e-01 5.64e-01 3.00e-01  -6.0 1.80e+02    -  1.00e+00 1.00e+00h  1
 247 -2.6041927e-01 5.12e-01 1.82e-01  -6.0 1.72e+02 -10.0 1.00e+00 1.00e+00h  1
 248 -2.6041656e-01 5.83e-01 2.70e+01  -6.0 7.61e+02    -  1.00e+00 1.14e-01h  2
 249 -2.6039702e-01 3.08e+00 6.67e-01  -6.0 4.24e+02    -  1.00e+00 1.00e+00h  1
iter    objective    inf_pr   inf_du lg(mu)  ||d||  lg(rg) alpha_du alpha_pr  ls
 250 -2.6039492e-01 1.23e-03 2.55e-03  -6.0 5.48e+00    -  1.00e+00 1.00e+00h  1
 251 -2.6039497e-01 7.81e-05 2.50e-05  -6.0 2.16e+00    -  1.00e+00 1.00e+00h  1
 252 -2.6039497e-01 7.75e-10 4.43e-10  -6.0 6.69e-03    -  1.00e+00 1.00e+00h  1
 253 -2.6092261e-01 1.88e+00 3.70e+01  -7.5 2.06e+03    -  3.55e-01 2.25e-01f  1
 254 -2.6099111e-01 1.86e+00 5.70e+01  -7.5 2.08e+03    -  1.59e-01 4.19e-02h  1
 255 -2.6100077e-01 1.84e+00 1.17e+02  -7.5 1.10e+03  -9.5 3.94e-01 7.19e-03h  1
 256 -2.6145825e-01 5.11e+00 7.50e+01  -7.5 2.49e+03    -  5.39e-03 2.88e-01h  1
 257 -2.6155591e-01 4.51e+00 7.28e+01  -7.5 4.04e+02 -10.0 3.79e-01 1.22e-01h  1
 258 -2.6174194e-01 3.71e+00 7.92e+01  -7.5 8.17e+02 -10.5 6.66e-01 2.46e-01h  1
 259 -2.6186043e-01 3.52e+00 8.07e+01  -7.5 2.27e+03    -  2.72e-01 1.72e-01h  1
iter    objective    inf_pr   inf_du lg(mu)  ||d||  lg(rg) alpha_du alpha_pr  ls
 260 -2.6201530e-01 3.21e+00 4.44e+01  -7.5 1.25e+03 -11.0 1.38e-01 3.08e-01h  1
 261 -2.6204570e-01 2.87e+00 9.55e+01  -7.5 2.00e+02  -9.6 7.48e-01 1.06e-01h  1
 262 -2.6227238e-01 9.12e-01 2.24e+01  -7.5 4.25e+02 -10.1 9.80e-01 8.03e-01h  1
 263 -2.6228536e-01 8.95e-01 2.12e+01  -7.5 3.23e+03    -  4.07e-02 5.78e-02h  1
 264 -2.6238432e-01 1.33e+00 5.60e+01  -7.5 1.62e+03    -  2.25e-01 5.40e-01h  1
 265 -2.6240006e-01 1.16e+00 2.60e+01  -7.5 6.34e+02 -10.6 3.07e-01 1.28e-01h  1
 266 -2.6243547e-01 2.31e+00 5.16e+01  -7.5 5.89e+02 -11.1 4.57e-01 6.11e-01h  1
 267 -2.6247712e-01 1.42e+00 2.83e+01  -7.5 4.66e+02 -11.5 7.97e-01 8.12e-01h  1
 268 -2.6252431e-01 4.86e+00 1.28e+03  -7.5 6.46e+02 -12.0 3.87e-01 9.85e-01h  1
 269 -2.6249560e-01 2.17e-01 1.28e+06  -7.5 6.70e+01    -  1.54e-03 1.00e+00h  1
iter    objective    inf_pr   inf_du lg(mu)  ||d||  lg(rg) alpha_du alpha_pr  ls
 270 -2.6250935e-01 7.50e-01 5.61e+01  -7.5 9.03e+01    -  5.80e-01 1.00e+00h  1
 271 -2.6253985e-01 2.37e-01 2.08e+01  -7.5 7.55e+01 -10.7 4.25e-01 6.15e-01h  1
 272 -2.6254223e-01 2.58e-01 2.12e+00  -7.5 9.89e+01 -11.2 5.03e-01 1.00e+00h  1
 273 -2.6254215e-01 2.59e-01 2.38e+00  -7.5 1.68e+03    -  2.95e-01 7.81e-03h  8
 274 -2.6254213e-01 2.59e-01 2.40e+00  -7.5 3.28e+03    -  4.61e-02 1.70e-03h 10
 275 -2.6254212e-01 2.59e-01 2.71e+00  -7.5 3.20e+03    -  5.09e-01 1.75e-03h 10
 276 -2.6254202e-01 2.60e-01 2.69e+00  -7.5 1.83e+03    -  5.11e-02 7.81e-03h  8
 277 -2.6254194e-01 2.60e-01 2.81e+00  -7.5 1.99e+03    -  6.14e-01 7.81e-03h  8
 278 -2.6254185e-01 2.60e-01 2.79e+00  -7.5 1.78e+03    -  6.51e-02 7.81e-03h  8
 279 -2.6254178e-01 2.60e-01 2.83e+00  -7.5 1.84e+03    -  1.00e+00 7.81e-03h  8
iter    objective    inf_pr   inf_du lg(mu)  ||d||  lg(rg) alpha_du alpha_pr  ls
 280 -2.6254160e-01 2.61e-01 2.78e+00  -7.5 1.43e+03    -  8.12e-02 1.56e-02h  7
 281 -2.6254144e-01 2.61e-01 2.73e+00  -7.5 1.60e+03    -  5.87e-01 1.56e-02h  7
 282 -2.6254136e-01 2.61e-01 2.71e+00  -7.5 2.00e+03    -  1.09e-01 7.81e-03h  8
 283 -2.6253190e-01 4.85e+01 5.42e-02  -7.5 2.01e+03    -  1.00e+00 1.00e+00w  1
 284 -2.6253325e-01 8.09e+01 2.55e-01  -7.5 1.41e+04    -  1.40e-01 1.22e-01w  1
 285 -2.6253333e-01 6.10e+00 2.42e-01  -7.5 5.83e+02    -  8.42e-01 1.00e+00w  1
 286 -2.6254129e-01 2.60e-01 2.69e+00  -7.5 1.94e+04    -  1.00e+00 7.81e-03h  7
 287 -2.6254113e-01 2.60e-01 2.65e+00  -7.5 1.58e+03    -  1.22e-01 1.56e-02h  7
 288 -2.6254099e-01 2.60e-01 2.61e+00  -7.5 1.73e+03    -  8.38e-01 1.56e-02h  7
 289 -2.6254091e-01 2.59e-01 2.58e+00  -7.5 1.98e+03    -  1.56e-01 7.81e-03h  8
iter    objective    inf_pr   inf_du lg(mu)  ||d||  lg(rg) alpha_du alpha_pr  ls
 290 -2.6254084e-01 2.58e-01 2.57e+00  -7.5 1.97e+03    -  1.00e+00 7.81e-03h  8
 291 -2.6254070e-01 2.57e-01 2.52e+00  -7.5 1.70e+03    -  1.71e-01 1.56e-02h  7
 292 -2.6254063e-01 2.55e-01 2.51e+00  -7.5 1.84e+03    -  1.00e+00 7.81e-03h  8
 293 -2.6254056e-01 2.54e-01 2.49e+00  -7.5 1.90e+03    -  1.97e-01 7.81e-03h  8
 294 -2.6254049e-01 2.53e-01 2.47e+00  -7.5 1.92e+03    -  1.00e+00 7.81e-03h  8
 295 -2.6254035e-01 2.51e-01 2.43e+00  -7.5 1.81e+03    -  2.15e-01 1.56e-02h  7
 296 -2.6253188e-01 4.49e+01 5.12e-02  -7.5 1.93e+03    -  1.00e+00 1.00e+00w  1
 297 -2.6253329e-01 8.06e+01 2.24e-01  -7.5 1.45e+04    -  1.34e-01 1.22e-01w  1
 298 -2.6253353e-01 8.21e+00 2.12e-01  -7.5 6.87e+02    -  8.73e-01 1.00e+00w  1
 299 -2.6254028e-01 2.50e-01 2.41e+00  -7.5 3.83e+02 -11.6 1.00e+00 7.81e-03h  7
iter    objective    inf_pr   inf_du lg(mu)  ||d||  lg(rg) alpha_du alpha_pr  ls
 300 -2.6254022e-01 2.49e-01 2.39e+00  -7.5 1.88e+03    -  2.43e-01 7.81e-03h  8
 301 -2.6254015e-01 2.48e-01 2.37e+00  -7.5 1.91e+03    -  1.00e+00 7.81e-03h  8
 302 -2.6254002e-01 2.46e-01 2.34e+00  -7.5 1.87e+03    -  2.61e-01 1.56e-02h  7
 303 -2.6253996e-01 2.45e-01 2.32e+00  -7.5 1.97e+03    -  1.00e+00 7.81e-03h  8
 304 -2.6253983e-01 2.43e-01 2.28e+00  -7.5 1.88e+03    -  2.90e-01 1.56e-02h  7
 305 -2.6253977e-01 2.41e-01 2.26e+00  -7.5 1.97e+03    -  1.00e+00 7.81e-03h  8
 306 -2.6253965e-01 2.39e-01 2.23e+00  -7.5 1.89e+03    -  3.20e-01 1.56e-02h  7
 307 -2.6253959e-01 2.38e-01 2.21e+00  -7.5 1.98e+03    -  1.00e+00 7.81e-03h  8
 308 -2.6253956e-01 2.37e-01 2.20e+00  -7.5 1.90e+03    -  3.50e-01 3.91e-03h  9
 309 -2.6253195e-01 4.53e+01 5.34e-02  -7.5 1.93e+03    -  1.00e+00 1.00e+00w  1
iter    objective    inf_pr   inf_du lg(mu)  ||d||  lg(rg) alpha_du alpha_pr  ls
 310 -2.6253335e-01 7.93e+01 2.00e-01  -7.5 1.12e+04    -  1.69e-01 1.58e-01w  1
 311 -2.6253371e-01 9.52e+00 4.99e-02  -7.5 7.45e+02    -  9.72e-01 1.00e+00w  1
 312 -2.6253368e-01 1.55e-01 8.13e-01  -7.5 6.68e+01    -  2.93e-01 1.00e+00h  1
 313 -2.6253370e-01 3.33e-02 4.66e-05  -7.5 2.11e+01 -10.3 1.00e+00 1.00e+00h  1
 314 -2.6253401e-01 1.84e-02 1.62e-01  -7.5 3.53e+02    -  4.50e-01 1.00e+00H  1
 315 -2.6253402e-01 1.18e-01 4.75e-05  -7.5 2.46e+01    -  1.00e+00 1.00e+00h  1
 316 -2.6253407e-01 5.81e-02 4.08e-03  -7.5 4.67e+02    -  1.38e-01 1.25e-01h  4
 317 -2.6253515e-01 1.58e-01 9.17e-02  -7.5 1.25e+03    -  9.28e-01 1.00e+00H  1
 318 -2.6253545e-01 3.79e-01 1.94e-02  -7.5 4.28e+02    -  1.00e+00 1.00e+00H  1
 319 -2.6253541e-01 5.22e-02 3.88e-04  -7.5 5.74e+01    -  1.00e+00 1.00e+00h  1
iter    objective    inf_pr   inf_du lg(mu)  ||d||  lg(rg) alpha_du alpha_pr  ls
 320 -2.6253541e-01 4.01e-06 1.27e-07  -7.5 5.52e-01    -  1.00e+00 1.00e+00h  1
 321 -2.6253541e-01 2.83e-10 4.92e-13  -7.5 3.79e-04    -  1.00e+00 1.00e+00h  1
 322 -2.6253690e-01 6.46e-01 5.80e+00  -9.0 1.73e+03    -  5.16e-01 1.16e-01h  1
 323 -2.6253930e-01 3.64e+01 4.73e+00  -9.0 7.05e+03    -  2.36e-01 2.12e-01h  1
 324 -2.6254094e-01 4.84e+01 2.88e+00  -9.0 3.47e+03    -  2.95e-01 3.40e-01h  1
 325 -2.6254257e-01 3.89e+01 7.29e+01  -9.0 1.55e+03    -  4.53e-02 7.81e-01h  1
 326 -2.6254266e-01 3.83e+01 7.26e+01  -9.0 5.47e+03    -  1.69e-02 3.68e-02h  1
 327 -2.6254268e-01 3.72e+01 5.03e+01  -9.0 1.67e+03    -  3.85e-01 2.84e-02h  1
 328 -2.6254301e-01 3.09e+01 6.86e+03  -9.0 1.61e+03    -  1.72e-03 4.16e-01h  1
 329 -2.6254362e-01 3.87e+01 1.26e+03  -9.0 1.53e+03    -  1.59e-02 8.16e-01h  1
iter    objective    inf_pr   inf_du lg(mu)  ||d||  lg(rg) alpha_du alpha_pr  ls
 330 -2.6254368e-01 2.87e+01 7.80e+02  -9.0 1.55e+03    -  1.37e-01 3.81e-01h  1
 331 -2.6254386e-01 2.66e+01 5.65e+02  -9.0 1.81e+03    -  4.25e-01 2.76e-01h  1
 332 -2.6254402e-01 2.22e+01 4.02e+02  -9.0 1.26e+03    -  4.90e-02 2.89e-01h  1
 333 -2.6254403e-01 2.02e+01 3.66e+02  -9.0 5.59e+02    -  3.64e-02 8.98e-02h  1
 334 -2.6254406e-01 1.63e+01 2.95e+02  -9.0 5.36e+02    -  2.20e-01 1.94e-01h  1
 335 -2.6254407e-01 1.48e+01 2.67e+02  -9.0 5.98e+02    -  4.72e-02 9.46e-02h  1
 336 -2.6254419e-01 4.13e-01 2.25e+00  -9.0 1.75e+02    -  1.03e-01 1.00e+00h  1
 337 -2.6254421e-01 2.96e+00 2.90e-01  -9.0 3.72e+02    -  7.36e-01 1.00e+00h  1
 338 -2.6254421e-01 1.59e-01 1.98e-01  -9.0 6.60e+01    -  3.18e-01 1.00e+00h  1
 339 -2.6254421e-01 3.77e-03 8.43e-08  -9.0 7.66e+00 -10.8 1.00e+00 1.00e+00h  1
iter    objective    inf_pr   inf_du lg(mu)  ||d||  lg(rg) alpha_du alpha_pr  ls
 340 -2.6254447e-01 5.42e+01 2.41e-02  -9.0 3.28e+03    -  5.46e-02 6.53e-01h  1
 341 -2.6254436e-01 4.68e+01 3.08e-02  -9.0 2.82e+03    -  6.59e-01 2.44e-01h  3
 342 -2.6254442e-01 1.21e-01 3.59e-02  -9.0 5.17e+01 -11.3 2.83e-01 1.00e+00h  1
 343 -2.6254506e-01 7.49e+01 7.50e-02  -9.0 6.68e+03    -  2.33e-01 5.00e-01H  1
 344 -2.6254485e-01 7.20e+01 1.87e-01  -9.0 5.04e+03    -  1.00e+00 1.64e-01h  1
 345 -2.6254466e-01 4.84e+01 6.35e-01  -9.0 1.96e+03    -  1.69e-03 5.00e-01h  2
 346 -2.6254481e-01 3.14e+00 5.76e-02  -9.0 4.39e+02    -  7.62e-01 1.00e+00h  1
 347 -2.6254509e-01 2.29e+01 6.55e-02  -9.0 1.40e+04    -  1.58e-01 8.70e-02h  2
 348 -2.6254534e-01 3.46e+01 6.21e-02  -9.0 2.52e+04    -  3.65e-02 3.76e-02h  2
 349 -2.6254557e-01 7.64e+00 9.36e-03  -9.0 6.88e+02    -  9.11e-01 1.00e+00h  1
iter    objective    inf_pr   inf_du lg(mu)  ||d||  lg(rg) alpha_du alpha_pr  ls
 350 -2.6254618e-01 6.62e+01 2.91e-02  -9.0 1.17e+04    -  2.26e-02 1.71e-01h  1
 351 -2.6254615e-01 6.62e+01 2.90e-02  -9.0 3.92e+04    -  2.20e-03 2.17e-03h  5
 352 -2.6254620e-01 6.42e+01 1.10e-01  -9.0 4.08e+03    -  2.47e-01 3.60e-02h  1
 353 -2.6254678e-01 5.37e+01 1.19e-02  -9.0 1.75e+03    -  1.00e+00 1.00e+00h  1
 354 -2.6254702e-01 4.09e+01 1.71e-01  -9.0 1.71e+03    -  3.32e-01 5.30e-01h  1
 355 -2.6254732e-01 4.04e+01 2.85e-01  -9.0 1.63e+03    -  4.61e-02 7.77e-01h  1
 356 -2.6254756e-01 3.58e+01 1.54e+01  -9.0 1.30e+03    -  6.80e-02 1.00e+00h  1
 357 -2.6254761e-01 3.56e+01 1.45e+01  -9.0 4.89e+03    -  2.25e-01 5.99e-02h  2
 358 -2.6254769e-01 3.44e+01 1.15e+01  -9.0 2.53e+03    -  7.29e-01 2.07e-01h  1
 359 -2.6254780e-01 2.82e+01 4.42e+00  -9.0 1.28e+03    -  1.47e-01 6.17e-01h  1
iter    objective    inf_pr   inf_du lg(mu)  ||d||  lg(rg) alpha_du alpha_pr  ls
 360 -2.6254763e-01 8.24e+00 5.05e+00  -9.0 6.12e+02    -  6.69e-02 1.00e+00h  1
 361 -2.6254766e-01 8.36e-03 3.89e-02  -9.0 2.72e+01    -  9.80e-01 1.00e+00h  1
 362 -2.6254767e-01 5.03e-04 2.66e-04  -9.0 4.65e+00 -11.7 1.00e+00 1.00e+00h  1
 363 -2.6254774e-01 1.50e+00 4.84e-04  -9.0 4.21e+02    -  1.00e+00 1.00e+00H  1
 364 -2.6254772e-01 4.80e-01 4.97e-05  -9.0 1.43e+02    -  1.00e+00 1.00e+00h  1
 365 -2.6254772e-01 2.46e-02 4.15e-06  -9.0 3.18e+01    -  1.00e+00 1.00e+00h  1
 366 -2.6254772e-01 8.82e-05 2.07e-08  -9.0 1.90e+00    -  1.00e+00 1.00e+00h  1
 367 -2.6254772e-01 9.46e-10 2.34e-13  -9.0 6.24e-03    -  1.00e+00 1.00e+00h  1

Number of Iterations....: 367

                                   (scaled)                 (unscaled)
Objective...............:  -2.6254772445103469e-01   -2.6254772445103469e-01
Dual infeasibility......:   2.3403018879205376e-13    2.3403018879205376e-13
Constraint violation....:   5.1186291152905615e-10    9.4587448984384537e-10
Complementarity.........:   9.0909091612042436e-10    9.0909091612042436e-10
Overall NLP error.......:   9.0909091612042436e-10    9.4587448984384537e-10


Number of objective function evaluations             = 1119
Number of objective gradient evaluations             = 368
Number of equality constraint evaluations            = 1121
Number of inequality constraint evaluations          = 1120
Number of equality constraint Jacobian evaluations   = 368
Number of inequality constraint Jacobian evaluations = 368
Number of Lagrangian Hessian evaluations             = 367
Total CPU secs in IPOPT (w/o function evaluations)   =    879.582
Total CPU secs in NLP function evaluations           =     21.037

EXIT: Optimal Solution Found.
